\ Model Vehicle Routing
\ LP format - for model browsing. Use MPS format to capture full model detail.
Minimize
  0.447213595499958 x_ijk[0,0,1] + 0.6207354508967569 x_ijk[0,0,2]
   + 0.2253469547164993 x_ijk[0,0,3] + 0.4419417382415922 x_ijk[0,0,4]
   + 0.4419417382415922 x_ijk[0,0,5] + 0.447213595499958 x_ijk[0,1,0]
   + 0.7551903733496608 x_ijk[0,1,2] + 0.5251487884400001 x_ijk[0,1,3]
   + 0.7875992001011682 x_ijk[0,1,4] + 0.7875992001011682 x_ijk[0,1,5]
   + 0.6207354508967569 x_ijk[0,2,0] + 0.7551903733496608 x_ijk[0,2,1]
   + 0.3994136327167614 x_ijk[0,2,3] + 0.3716517186829627 x_ijk[0,2,4]
   + 0.3716517186829627 x_ijk[0,2,5] + 0.2253469547164993 x_ijk[0,3,0]
   + 0.5251487884400001 x_ijk[0,3,1] + 0.3994136327167614 x_ijk[0,3,2]
   + 0.2636877888716124 x_ijk[0,3,4] + 0.2636877888716124 x_ijk[0,3,5]
   + 0.4419417382415922 x_ijk[0,4,0] + 0.7875992001011682 x_ijk[0,4,1]
   + 0.3716517186829627 x_ijk[0,4,2] + 0.2636877888716124 x_ijk[0,4,3]
   + 0 x_ijk[0,4,5] + 0.894427190999916 x_ijk[1,0,1]
   + 1.241470901793514 x_ijk[1,0,2] + 0.4506939094329986 x_ijk[1,0,3]
   + 0.8838834764831844 x_ijk[1,0,4] + 0.8838834764831844 x_ijk[1,0,5]
   + 0.894427190999916 x_ijk[1,1,0] + 1.510380746699322 x_ijk[1,1,2]
   + 1.05029757688 x_ijk[1,1,3] + 1.575198400202336 x_ijk[1,1,4]
   + 1.575198400202336 x_ijk[1,1,5] + 1.241470901793514 x_ijk[1,2,0]
   + 1.510380746699322 x_ijk[1,2,1] + 0.7988272654335229 x_ijk[1,2,3]
   + 0.7433034373659253 x_ijk[1,2,4] + 0.7433034373659253 x_ijk[1,2,5]
   + 0.4506939094329986 x_ijk[1,3,0] + 1.05029757688 x_ijk[1,3,1]
   + 0.7988272654335229 x_ijk[1,3,2] + 0.5273755777432247 x_ijk[1,3,4]
   + 0.5273755777432247 x_ijk[1,3,5] + 0.8838834764831844 x_ijk[1,4,0]
   + 1.575198400202336 x_ijk[1,4,1] + 0.7433034373659253 x_ijk[1,4,2]
   + 0.5273755777432247 x_ijk[1,4,3] + 0 x_ijk[1,4,5]
Subject To
 R0: x_ijk[0,0,0] + x_ijk[0,1,0] + x_ijk[0,2,0] + x_ijk[0,3,0]
   + x_ijk[0,4,0] + x_ijk[1,0,0] + x_ijk[1,1,0] + x_ijk[1,2,0]
   + x_ijk[1,3,0] + x_ijk[1,4,0] = 1
 R1: x_ijk[0,0,1] + x_ijk[0,1,1] + x_ijk[0,2,1] + x_ijk[0,3,1]
   + x_ijk[0,4,1] + x_ijk[1,0,1] + x_ijk[1,1,1] + x_ijk[1,2,1]
   + x_ijk[1,3,1] + x_ijk[1,4,1] = 1
 R2: x_ijk[0,0,2] + x_ijk[0,1,2] + x_ijk[0,2,2] + x_ijk[0,3,2]
   + x_ijk[0,4,2] + x_ijk[1,0,2] + x_ijk[1,1,2] + x_ijk[1,2,2]
   + x_ijk[1,3,2] + x_ijk[1,4,2] = 1
 R3: x_ijk[0,0,3] + x_ijk[0,1,3] + x_ijk[0,2,3] + x_ijk[0,3,3]
   + x_ijk[0,4,3] + x_ijk[1,0,3] + x_ijk[1,1,3] + x_ijk[1,2,3]
   + x_ijk[1,3,3] + x_ijk[1,4,3] = 1
 R4: x_ijk[0,4,0] + x_ijk[0,4,1] + x_ijk[0,4,2] + x_ijk[0,4,3] = 1
 R5: x_ijk[0,0,4] + x_ijk[0,1,4] + x_ijk[0,2,4] + x_ijk[0,3,4]
   + x_ijk[0,4,4] = 0
 R6: x_ijk[1,4,0] + x_ijk[1,4,1] + x_ijk[1,4,2] + x_ijk[1,4,3] = 1
 R7: x_ijk[1,0,4] + x_ijk[1,1,4] + x_ijk[1,2,4] + x_ijk[1,3,4]
   + x_ijk[1,4,4] = 0
 R8: x_ijk[0,5,0] + x_ijk[0,5,1] + x_ijk[0,5,2] + x_ijk[0,5,3]
   + x_ijk[0,5,4] + x_ijk[0,5,5] = 0
 R9: x_ijk[0,0,5] + x_ijk[0,1,5] + x_ijk[0,2,5] + x_ijk[0,3,5] = 1
 R10: x_ijk[1,5,0] + x_ijk[1,5,1] + x_ijk[1,5,2] + x_ijk[1,5,3]
   + x_ijk[1,5,4] + x_ijk[1,5,5] = 0
 R11: x_ijk[1,0,5] + x_ijk[1,1,5] + x_ijk[1,2,5] + x_ijk[1,3,5] = 1
 R12: - x_ijk[0,0,0] + x_ijk[0,0,1] + x_ijk[0,0,2] + x_ijk[0,0,3]
   + x_ijk[0,0,5] - x_ijk[0,1,0] - x_ijk[0,2,0] - x_ijk[0,3,0]
   - x_ijk[0,4,0] = 0
 R13: - x_ijk[0,0,1] + x_ijk[0,1,0] - x_ijk[0,1,1] + x_ijk[0,1,2]
   + x_ijk[0,1,3] + x_ijk[0,1,5] - x_ijk[0,2,1] - x_ijk[0,3,1]
   - x_ijk[0,4,1] = 0
 R14: - x_ijk[0,0,2] - x_ijk[0,1,2] + x_ijk[0,2,0] + x_ijk[0,2,1]
   - x_ijk[0,2,2] + x_ijk[0,2,3] + x_ijk[0,2,5] - x_ijk[0,3,2]
   - x_ijk[0,4,2] = 0
 R15: - x_ijk[0,0,3] - x_ijk[0,1,3] - x_ijk[0,2,3] + x_ijk[0,3,0]
   + x_ijk[0,3,1] + x_ijk[0,3,2] - x_ijk[0,3,3] + x_ijk[0,3,5]
   - x_ijk[0,4,3] = 0
 R16: - x_ijk[1,0,0] + x_ijk[1,0,1] + x_ijk[1,0,2] + x_ijk[1,0,3]
   + x_ijk[1,0,5] - x_ijk[1,1,0] - x_ijk[1,2,0] - x_ijk[1,3,0]
   - x_ijk[1,4,0] = 0
 R17: - x_ijk[1,0,1] + x_ijk[1,1,0] - x_ijk[1,1,1] + x_ijk[1,1,2]
   + x_ijk[1,1,3] + x_ijk[1,1,5] - x_ijk[1,2,1] - x_ijk[1,3,1]
   - x_ijk[1,4,1] = 0
 R18: - x_ijk[1,0,2] - x_ijk[1,1,2] + x_ijk[1,2,0] + x_ijk[1,2,1]
   - x_ijk[1,2,2] + x_ijk[1,2,3] + x_ijk[1,2,5] - x_ijk[1,3,2]
   - x_ijk[1,4,2] = 0
 R19: - x_ijk[1,0,3] - x_ijk[1,1,3] - x_ijk[1,2,3] + x_ijk[1,3,0]
   + x_ijk[1,3,1] + x_ijk[1,3,2] - x_ijk[1,3,3] + x_ijk[1,3,5]
   - x_ijk[1,4,3] = 0
 R20: 4 x_ijk[0,0,1] + u[0,0] - u[0,1] <= 3
 R21: 4 x_ijk[0,0,2] + u[0,0] - u[0,2] <= 3
 R22: 4 x_ijk[0,0,3] + u[0,0] - u[0,3] <= 3
 R23: 4 x_ijk[0,1,0] - u[0,0] + u[0,1] <= 3
 R24: 4 x_ijk[0,1,2] + u[0,1] - u[0,2] <= 3
 R25: 4 x_ijk[0,1,3] + u[0,1] - u[0,3] <= 3
 R26: 4 x_ijk[0,2,0] - u[0,0] + u[0,2] <= 3
 R27: 4 x_ijk[0,2,1] - u[0,1] + u[0,2] <= 3
 R28: 4 x_ijk[0,2,3] + u[0,2] - u[0,3] <= 3
 R29: 4 x_ijk[0,3,0] - u[0,0] + u[0,3] <= 3
 R30: 4 x_ijk[0,3,1] - u[0,1] + u[0,3] <= 3
 R31: 4 x_ijk[0,3,2] - u[0,2] + u[0,3] <= 3
 R32: 4 x_ijk[1,0,1] + u[1,0] - u[1,1] <= 3
 R33: 4 x_ijk[1,0,2] + u[1,0] - u[1,2] <= 3
 R34: 4 x_ijk[1,0,3] + u[1,0] - u[1,3] <= 3
 R35: 4 x_ijk[1,1,0] - u[1,0] + u[1,1] <= 3
 R36: 4 x_ijk[1,1,2] + u[1,1] - u[1,2] <= 3
 R37: 4 x_ijk[1,1,3] + u[1,1] - u[1,3] <= 3
 R38: 4 x_ijk[1,2,0] - u[1,0] + u[1,2] <= 3
 R39: 4 x_ijk[1,2,1] - u[1,1] + u[1,2] <= 3
 R40: 4 x_ijk[1,2,3] + u[1,2] - u[1,3] <= 3
 R41: 4 x_ijk[1,3,0] - u[1,0] + u[1,3] <= 3
 R42: 4 x_ijk[1,3,1] - u[1,1] + u[1,3] <= 3
 R43: 4 x_ijk[1,3,2] - u[1,2] + u[1,3] <= 3
 R44: 4 x_ijk[0,0,0] + 18 x_ijk[0,0,1] + 5 x_ijk[0,0,2] + 6 x_ijk[0,0,3]
   + 4 x_ijk[0,1,0] + 18 x_ijk[0,1,1] + 5 x_ijk[0,1,2] + 6 x_ijk[0,1,3]
   + 4 x_ijk[0,2,0] + 18 x_ijk[0,2,1] + 5 x_ijk[0,2,2] + 6 x_ijk[0,2,3]
   + 4 x_ijk[0,3,0] + 18 x_ijk[0,3,1] + 5 x_ijk[0,3,2] + 6 x_ijk[0,3,3]
   + 4 x_ijk[0,4,0] + 18 x_ijk[0,4,1] + 5 x_ijk[0,4,2] + 6 x_ijk[0,4,3]
   <= 15
 R45: 4 x_ijk[1,0,0] + 18 x_ijk[1,0,1] + 5 x_ijk[1,0,2] + 6 x_ijk[1,0,3]
   + 4 x_ijk[1,1,0] + 18 x_ijk[1,1,1] + 5 x_ijk[1,1,2] + 6 x_ijk[1,1,3]
   + 4 x_ijk[1,2,0] + 18 x_ijk[1,2,1] + 5 x_ijk[1,2,2] + 6 x_ijk[1,2,3]
   + 4 x_ijk[1,3,0] + 18 x_ijk[1,3,1] + 5 x_ijk[1,3,2] + 6 x_ijk[1,3,3]
   + 4 x_ijk[1,4,0] + 18 x_ijk[1,4,1] + 5 x_ijk[1,4,2] + 6 x_ijk[1,4,3]
   <= 40
Bounds
 u[0,0] <= 4
 u[0,1] <= 4
 u[0,2] <= 4
 u[0,3] <= 4
 u[1,0] <= 4
 u[1,1] <= 4
 u[1,2] <= 4
 u[1,3] <= 4
Binaries
 x_ijk[0,0,0] x_ijk[0,0,1] x_ijk[0,0,2] x_ijk[0,0,3] x_ijk[0,0,4]
 x_ijk[0,0,5] x_ijk[0,1,0] x_ijk[0,1,1] x_ijk[0,1,2] x_ijk[0,1,3]
 x_ijk[0,1,4] x_ijk[0,1,5] x_ijk[0,2,0] x_ijk[0,2,1] x_ijk[0,2,2]
 x_ijk[0,2,3] x_ijk[0,2,4] x_ijk[0,2,5] x_ijk[0,3,0] x_ijk[0,3,1]
 x_ijk[0,3,2] x_ijk[0,3,3] x_ijk[0,3,4] x_ijk[0,3,5] x_ijk[0,4,0]
 x_ijk[0,4,1] x_ijk[0,4,2] x_ijk[0,4,3] x_ijk[0,4,4] x_ijk[0,4,5]
 x_ijk[0,5,0] x_ijk[0,5,1] x_ijk[0,5,2] x_ijk[0,5,3] x_ijk[0,5,4]
 x_ijk[0,5,5] x_ijk[1,0,0] x_ijk[1,0,1] x_ijk[1,0,2] x_ijk[1,0,3]
 x_ijk[1,0,4] x_ijk[1,0,5] x_ijk[1,1,0] x_ijk[1,1,1] x_ijk[1,1,2]
 x_ijk[1,1,3] x_ijk[1,1,4] x_ijk[1,1,5] x_ijk[1,2,0] x_ijk[1,2,1]
 x_ijk[1,2,2] x_ijk[1,2,3] x_ijk[1,2,4] x_ijk[1,2,5] x_ijk[1,3,0]
 x_ijk[1,3,1] x_ijk[1,3,2] x_ijk[1,3,3] x_ijk[1,3,4] x_ijk[1,3,5]
 x_ijk[1,4,0] x_ijk[1,4,1] x_ijk[1,4,2] x_ijk[1,4,3] x_ijk[1,4,4]
 x_ijk[1,4,5] x_ijk[1,5,0] x_ijk[1,5,1] x_ijk[1,5,2] x_ijk[1,5,3]
 x_ijk[1,5,4] x_ijk[1,5,5]
End
